
n_res = 4;
rcap = [56, 52, 458, 544];
rtype = [1, 1, 2, 2];
n_tasks = 50;
modes =  [{1, 2, 3, 4, 5, 6}, {7, 8, 9, 10, 11, 12}, {13, 14, 15, 16, 17, 18}, {19, 20, 21, 22, 23, 24}, {25, 26, 27, 28, 29, 30}, {31, 32, 33, 34, 35, 36}, {37, 38, 39, 40, 41, 42}, {43, 44, 45, 46, 47, 48}, {49, 50, 51, 52, 53, 54}, {55, 56, 57, 58, 59, 60}, {61, 62, 63, 64, 65, 66}, {67, 68, 69, 70, 71, 72}, {73, 74, 75, 76, 77, 78}, {79, 80, 81, 82, 83, 84}, {85, 86, 87, 88, 89, 90}, {91, 92, 93, 94, 95, 96}, {97, 98, 99, 100, 101, 102}, {103, 104, 105, 106, 107, 108}, {109, 110, 111, 112, 113, 114}, {115, 116, 117, 118, 119, 120}, {121, 122, 123, 124, 125, 126}, {127, 128, 129, 130, 131, 132}, {133, 134, 135, 136, 137, 138}, {139, 140, 141, 142, 143, 144}, {145, 146, 147, 148, 149, 150}, {151, 152, 153, 154, 155, 156}, {157, 158, 159, 160, 161, 162}, {163, 164, 165, 166, 167, 168}, {169, 170, 171, 172, 173, 174}, {175, 176, 177, 178, 179, 180}, {181, 182, 183, 184, 185, 186}, {187, 188, 189, 190, 191, 192}, {193, 194, 195, 196, 197, 198}, {199, 200, 201, 202, 203, 204}, {205, 206, 207, 208, 209, 210}, {211, 212, 213, 214, 215, 216}, {217, 218, 219, 220, 221, 222}, {223, 224, 225, 226, 227, 228}, {229, 230, 231, 232, 233, 234}, {235, 236, 237, 238, 239, 240}, {241, 242, 243, 244, 245, 246}, {247, 248, 249, 250, 251, 252}, {253, 254, 255, 256, 257, 258}, {259, 260, 261, 262, 263, 264}, {265, 266, 267, 268, 269, 270}, {271, 272, 273, 274, 275, 276}, {277, 278, 279, 280, 281, 282}, {283, 284, 285, 286, 287, 288}, {289, 290, 291, 292, 293, 294}, {295, 296, 297, 298, 299, 300}];
succ =  [{33, 28, 27, 26, 20, 19, 13, 12}, {33, 28, 27, 23, 20, 18, 16, 14}, {26, 23, 20, 19, 13, 10}, {26, 21, 20, 10}, {28, 26, 24, 20, 19, 18}, {33, 28, 23, 18, 13}, {36, 29, 25, 24, 23, 22}, {39, 28, 23, 22, 18}, {37, 36, 32, 29, 28, 26, 24}, {50, 39, 33, 28, 27, 18}, {39, 28, 20, 18}, {39, 23, 18}, {50, 39, 37, 36, 32, 30, 29, 25}, {50, 39, 36, 35, 32, 26, 25}, {39, 37, 35, 32, 29, 26, 25}, {50, 39, 36, 34, 22}, {50, 49, 47, 39, 36, 35, 32, 25}, {37, 36, 35, 32, 29, 25}, {39, 36, 35, 32, 29, 25}, {50, 48, 36, 34, 30, 29}, {50, 49, 48, 47, 43, 39, 36, 35, 34, 31}, {38, 37, 32, 31, 30}, {50, 49, 47, 46, 45, 42, 35, 32}, {50, 49, 42, 39, 33, 30}, {48, 46, 43, 41, 34, 31}, {49, 48, 47, 41, 40, 34}, {49, 46, 45, 44, 43, 42, 40}, {46, 45, 43, 42, 35}, {49, 47, 43, 31}, {46, 44, 43, 35}, {45, 42, 40}, {48, 44, 43}, {43, 41, 40}, {44, 38}, {41, 40}, {41, 40}, {47, 40}, {42}, {41}, {}, {}, {}, {}, {}, {}, {}, {}, {}, {}, {}];
n_opt = 300;
dur = [3, 9, 11, 14, 15, 16, 1, 2, 7, 8, 9, 12, 8, 9, 14, 18, 19, 20, 2, 3, 5, 12, 15, 17, 3, 4, 10, 11, 12, 20, 7, 8, 12, 16, 17, 18, 3, 12, 13, 14, 15, 16, 3, 5, 6, 7, 8, 20, 3, 4, 7, 8, 9, 19, 5, 6, 8, 9, 13, 18, 3, 7, 8, 10, 12, 16, 2, 4, 7, 9, 10, 16, 7, 8, 10, 14, 16, 20, 3, 7, 8, 9, 10, 17, 3, 4, 10, 17, 19, 20, 1, 2, 11, 12, 13, 14, 7, 9, 10, 12, 15, 18, 3, 4, 5, 11, 13, 18, 7, 9, 11, 13, 16, 19, 1, 2, 3, 4, 9, 11, 5, 10, 12, 13, 16, 17, 1, 2, 3, 5, 12, 13, 3, 4, 7, 14, 16, 20, 1, 2, 11, 16, 17, 20, 11, 12, 14, 18, 19, 20, 4, 6, 8, 13, 15, 16, 4, 7, 12, 15, 16, 17, 1, 2, 4, 8, 9, 19, 3, 4, 6, 7, 9, 19, 1, 10, 11, 12, 15, 20, 1, 2, 8, 15, 16, 17, 7, 9, 10, 11, 15, 20, 2, 7, 9, 11, 15, 20, 1, 3, 9, 11, 13, 14, 3, 4, 7, 11, 12, 13, 1, 8, 11, 13, 14, 15, 5, 7, 10, 11, 15, 20, 1, 2, 7, 8, 16, 17, 3, 6, 8, 12, 16, 20, 2, 7, 8, 12, 17, 18, 6, 10, 11, 13, 17, 18, 5, 7, 8, 10, 13, 14, 4, 6, 7, 11, 12, 18, 4, 10, 14, 15, 16, 18, 3, 8, 11, 17, 18, 19, 1, 12, 13, 14, 15, 16, 4, 9, 10, 15, 16, 17, 1, 2, 3, 10, 17, 18, 4, 10, 12, 13, 18, 20, 6, 9, 10, 16, 17, 18];
rreq = [|19, 17, 15, 14, 14, 12, 11, 11, 10, 8, 7, 5, 12, 12, 12, 12, 12, 12, 5, 4, 3, 3, 3, 2, 13, 13, 12, 10, 9, 8, 9, 8, 8, 8, 7, 7, 14, 14, 10, 10, 7, 4, 9, 8, 8, 8, 7, 7, 15, 15, 15, 15, 15, 15, 2, 2, 2, 2, 2, 2, 11, 11, 8, 8, 6, 4, 18, 18, 15, 14, 10, 9, 13, 10, 8, 6, 5, 3, 9, 8, 8, 6, 5, 5, 19, 17, 17, 16, 14, 14, 7, 7, 5, 5, 3, 3, 19, 19, 19, 18, 17, 17, 10, 8, 8, 6, 6, 5, 17, 16, 11, 10, 5, 1, 6, 4, 4, 3, 3, 2, 18, 14, 12, 8, 6, 6, 5, 3, 3, 3, 2, 1, 16, 15, 12, 11, 11, 8, 15, 13, 10, 9, 6, 2, 13, 12, 11, 10, 10, 9, 16, 13, 12, 7, 6, 3, 15, 15, 13, 11, 9, 8, 2, 2, 2, 2, 2, 2, 12, 10, 10, 9, 8, 8, 18, 16, 15, 13, 10, 8, 13, 13, 11, 11, 10, 8, 7, 6, 6, 6, 6, 6, 15, 14, 14, 12, 11, 8, 18, 16, 14, 14, 12, 11, 8, 5, 5, 4, 2, 2, 15, 15, 14, 13, 12, 12, 8, 8, 8, 8, 8, 8, 17, 15, 14, 13, 11, 9, 11, 10, 10, 9, 7, 7, 18, 15, 14, 13, 12, 11, 17, 16, 16, 16, 16, 16, 12, 12, 11, 10, 8, 8, 3, 3, 3, 2, 1, 1, 17, 15, 13, 12, 10, 9, 17, 17, 17, 16, 15, 15, 20, 19, 19, 19, 19, 19, 9, 8, 7, 5, 4, 4, 19, 18, 18, 17, 17, 17, 13, 12, 12, 11, 11, 11, 10, 7, 7, 5, 4, 3
 |9, 7, 6, 6, 4, 4, 18, 18, 17, 15, 15, 14, 14, 13, 12, 11, 10, 9, 12, 12, 12, 12, 12, 12, 3, 2, 2, 2, 1, 1, 17, 15, 13, 12, 9, 7, 4, 4, 4, 3, 2, 2, 14, 14, 14, 14, 14, 14, 11, 10, 9, 9, 8, 8, 18, 17, 16, 12, 11, 10, 7, 7, 5, 4, 3, 2, 16, 16, 16, 16, 16, 16, 18, 15, 12, 11, 10, 7, 16, 16, 15, 15, 14, 13, 10, 10, 10, 10, 10, 10, 17, 15, 14, 12, 12, 11, 17, 13, 11, 9, 5, 3, 9, 8, 7, 6, 5, 3, 6, 5, 4, 4, 3, 3, 4, 4, 4, 4, 3, 3, 15, 13, 11, 11, 8, 7, 14, 12, 11, 11, 10, 9, 18, 17, 15, 15, 14, 13, 4, 3, 3, 2, 2, 1, 8, 8, 8, 7, 6, 6, 13, 13, 13, 12, 12, 12, 4, 4, 4, 4, 3, 3, 16, 14, 14, 13, 11, 11, 11, 10, 10, 10, 10, 10, 12, 11, 9, 7, 5, 4, 17, 17, 14, 12, 10, 7, 10, 9, 8, 5, 5, 2, 12, 12, 12, 12, 11, 11, 8, 7, 7, 7, 6, 6, 12, 11, 10, 8, 5, 3, 18, 17, 17, 16, 16, 15, 13, 11, 11, 11, 9, 9, 10, 9, 7, 7, 6, 4, 4, 4, 3, 3, 3, 2, 4, 4, 4, 4, 4, 4, 17, 15, 12, 10, 6, 6, 17, 17, 17, 17, 17, 17, 8, 8, 7, 7, 6, 6, 19, 16, 16, 14, 12, 8, 9, 8, 8, 8, 8, 8, 12, 11, 9, 8, 8, 7, 9, 8, 8, 6, 4, 3, 16, 13, 11, 10, 9, 7, 4, 4, 4, 3, 3, 3, 7, 6, 5, 3, 3, 1
 |15, 15, 15, 15, 15, 15, 12, 10, 10, 10, 8, 8, 10, 8, 8, 7, 6, 6, 17, 15, 10, 7, 6, 3, 19, 16, 13, 12, 10, 6, 8, 8, 8, 8, 8, 8, 17, 17, 17, 17, 17, 17, 9, 7, 6, 4, 2, 1, 13, 12, 11, 11, 10, 9, 7, 7, 6, 5, 3, 3, 15, 11, 11, 9, 8, 5, 12, 11, 8, 5, 5, 3, 9, 8, 7, 5, 4, 4, 15, 11, 11, 9, 6, 6, 8, 7, 6, 5, 4, 3, 12, 10, 8, 4, 2, 1, 1, 1, 1, 1, 1, 1, 14, 13, 9, 8, 7, 5, 9, 8, 8, 8, 8, 8, 11, 10, 7, 6, 4, 3, 15, 15, 15, 15, 15, 15, 20, 18, 17, 16, 15, 13, 9, 8, 7, 6, 4, 3, 8, 7, 7, 7, 7, 7, 14, 13, 11, 11, 10, 9, 11, 10, 8, 6, 5, 5, 14, 11, 10, 10, 7, 7, 9, 8, 8, 8, 6, 6, 5, 3, 3, 3, 1, 1, 19, 17, 14, 13, 12, 8, 18, 18, 16, 14, 11, 9, 9, 7, 7, 7, 6, 5, 11, 9, 7, 5, 3, 3, 12, 11, 10, 10, 8, 8, 7, 5, 4, 4, 2, 2, 16, 15, 14, 13, 12, 12, 12, 10, 10, 9, 5, 5, 8, 7, 6, 6, 4, 4, 8, 7, 6, 5, 2, 1, 15, 13, 12, 11, 8, 7, 18, 15, 15, 13, 11, 11, 18, 15, 14, 11, 7, 7, 8, 7, 7, 7, 7, 7, 12, 9, 9, 7, 7, 5, 13, 12, 10, 7, 5, 4, 15, 13, 12, 10, 9, 7, 13, 12, 12, 11, 11, 11, 17, 15, 14, 12, 9, 7, 12, 11, 9, 9, 7, 7, 5, 4, 4, 3, 2, 2
 |19, 16, 13, 10, 10, 8, 13, 12, 12, 11, 11, 10, 10, 8, 8, 7, 7, 6, 13, 11, 10, 7, 5, 4, 19, 17, 16, 12, 11, 8, 7, 7, 7, 7, 7, 7, 15, 14, 13, 10, 9, 6, 15, 13, 11, 8, 5, 5, 11, 10, 9, 6, 6, 4, 14, 14, 14, 14, 13, 13, 16, 15, 15, 14, 13, 13, 17, 16, 14, 14, 13, 12, 11, 10, 9, 9, 8, 7, 15, 12, 12, 10, 7, 4, 16, 15, 12, 12, 10, 7, 4, 4, 4, 4, 4, 4, 12, 11, 7, 5, 3, 3, 10, 9, 9, 8, 7, 7, 19, 17, 17, 15, 14, 14, 17, 17, 17, 17, 17, 17, 12, 10, 8, 8, 7, 6, 12, 11, 11, 11, 10, 10, 5, 4, 4, 4, 4, 4, 17, 17, 14, 11, 5, 5, 7, 7, 7, 7, 7, 7, 9, 8, 8, 7, 7, 7, 16, 15, 13, 12, 11, 10, 15, 15, 14, 15, 14, 13, 13, 12, 11, 11, 9, 8, 10, 9, 9, 9, 9, 9, 18, 15, 15, 13, 8, 7, 15, 14, 12, 10, 8, 8, 19, 17, 17, 14, 14, 11, 11, 10, 10, 9, 10, 10, 16, 16, 16, 15, 14, 14, 15, 15, 12, 11, 7, 5, 15, 13, 10, 10, 8, 7, 9, 8, 6, 6, 4, 4, 13, 11, 10, 10, 8, 6, 18, 18, 18, 18, 18, 18, 13, 12, 10, 9, 8, 6, 7, 7, 6, 5, 4, 3, 16, 14, 13, 11, 11, 10, 17, 16, 15, 15, 13, 12, 13, 10, 10, 7, 4, 4, 14, 14, 13, 13, 13, 12, 19, 15, 14, 11, 8, 7, 11, 10, 10, 9, 9, 8, 20, 19, 17, 16, 15, 14, 11, 8, 7, 6, 5, 2|];